NAME : in_house_7_2
TYPE : TSP
DIMENSION : 7
EDGE_WEIGHT_TYPE : EXPLICIT
EDGE_WEIGHT_FORMAT : UPPER_ROW
COMMENT : INVERSION_SHIFT=3
EDGE_WEIGHT_SECTION
14
39
41
1
40
18
8
8
38
36
41
25
37
41
19
5
4
22
42
21
42
